c User generated cnf file
p cnf 10 48
10 8 -8 0 
5 -8 8 0 
3 -1 8 0 
10 -2 3 0 
9 -9 8 0 
5 -7 5 0 
6 -7 2 0 
8 10 -6 0 
6 -4 2 0 
3 8 -8 0 
5 -3 2 0 
9 5 -9 0 
10 10 -6 0 
6 10 -1 0 
3 -4 10 0 
4 -4 2 0 
4 -5 8 0 
1 -7 4 0 
10 -6 1 0 
5 -4 1 0 
8 5 -1 0 
8 -5 9 0 
9 -9 4 0 
6 -2 7 0 
10 -10 9 0 
9 -7 3 0 
9 9 -1 0 
6 -3 6 0 
8 -7 1 0 
2 1 -5 0 
2 -10 3 0 
7 1 -5 0 
2 1 -6 0 
6 2 -7 0 
8 -10 6 0 
7 8 -10 0 
8 -2 8 0 
2 -9 1 0 
1 4 -8 0 
5 1 -8 0 
10 -5 1 0 
5 8 -3 0 
3 -3 10 0 
9 1 -7 0 
3 -6 2 0 
10 10 -2 0 
8 3 -9 0 
6 5 -6 0 
